p cnf 119 422
-2 -3 -4 0
2 3 -4 0
-2 3 4 0
2 -3 4 0
5 -1 0
5 -4 0
1 4 -5 0
-5 -6 -7 0
5 6 -7 0
-5 6 7 0
5 -6 7 0
10 -8 0
10 9 0
8 -9 -10 0
-10 7 -11 0
10 -7 -11 0
-10 -7 11 0
10 7 11 0
-12 -1 0
-12 -8 0
1 8 12 0
13 -4 0
13 -12 0
4 12 -13 0
-14 2 0
-14 -13 0
-2 13 14 0
-11 -14 -15 0
11 14 -15 0
-11 14 15 0
11 -14 15 0
-16 17 -18 0
16 -17 -18 0
-16 -17 18 0
16 17 18 0
15 -18 -19 0
-15 18 -19 0
15 18 19 0
-15 -18 19 0
-20 -7 0
-20 19 0
7 -19 20 0
-21 16 -22 0
21 -16 -22 0
-21 -16 22 0
21 16 22 0
20 22 -23 0
-20 -22 -23 0
20 -22 23 0
-20 22 23 0
25 -24 0
25 -8 0
24 8 -25 0
26 -22 0
26 -25 0
22 25 -26 0
-13 27 -28 0
13 -27 -28 0
-13 -27 28 0
13 27 28 0
29 -26 0
29 -28 0
26 28 -29 0
-13 6 -30 0
13 -6 -30 0
-13 -6 30 0
13 6 30 0
-31 -30 0
-31 -14 0
30 14 31 0
31 -18 -32 0
-31 18 -32 0
31 18 32 0
-31 -18 32 0
-6 22 -33 0
6 -22 -33 0
-6 -22 33 0
6 22 33 0
-34 33 0
-34 27 0
-33 -27 34 0
-35 -32 0
-35 34 0
32 -34 35 0
3 -9 -36 0
-3 9 -36 0
3 9 36 0
-3 -9 36 0
-37 -3 0
-37 -12 0
3 12 37 0
38 -36 0
38 37 0
36 -37 -38 0
-39 -35 0
-39 38 0
35 -38 39 0
40 30 -41 0
-40 -30 -41 0
40 -30 41 0
-40 30 41 0
-40 1 -42 0
40 -1 -42 0
-40 -1 42 0
40 1 42 0
43 -41 0
43 -42 0
41 42 -43 0
44 -39 0
44 -43 0
39 43 -44 0
45 -29 0
45 -44 0
29 44 -45 0
46 23 0
46 -45 0
-23 45 -46 0
-47 -16 0
-47 1 0
16 -1 47 0
-48 14 0
-48 47 0
-14 -47 48 0
49 -48 0
49 24 0
48 -24 -49 0
48 -21 -50 0
-48 21 -50 0
48 21 50 0
-48 -21 50 0
-51 -50 0
-51 -4 0
50 4 51 0
-52 36 0
-52 8 0
-36 -8 52 0
-21 16 -53 0
21 -16 -53 0
-21 -16 53 0
21 16 53 0
-52 -53 -54 0
52 53 -54 0
-52 53 54 0
52 -53 54 0
-55 -51 0
-55 54 0
51 -54 55 0
-56 49 0
-56 55 0
-49 -55 56 0
-57 46 0
-57 -56 0
-46 56 57 0
18 -16 -58 0
-18 16 -58 0
18 16 58 0
-18 -16 58 0
-59 58 0
-59 -18 0
-58 18 59 0
-47 -10 -60 0
47 10 -60 0
-47 10 60 0
47 -10 60 0
-61 -25 0
-61 -22 0
25 22 61 0
60 -61 -62 0
-60 61 -62 0
60 61 62 0
-60 -61 62 0
63 59 0
63 62 0
-59 -62 -63 0
-64 -21 -65 0
64 21 -65 0
-64 21 65 0
64 -21 65 0
66 -6 0
66 -7 0
6 7 -66 0
67 48 0
67 66 0
-48 -66 -67 0
-65 67 -68 0
65 -67 -68 0
-65 -67 68 0
65 67 68 0
69 63 0
69 -68 0
-63 68 -69 0
-70 -27 0
-70 50 0
27 -50 70 0
-13 60 -71 0
13 -60 -71 0
-13 -60 71 0
13 60 71 0
-72 -36 0
-72 -64 0
36 64 72 0
-72 25 -73 0
72 -25 -73 0
-72 -25 73 0
72 25 73 0
74 73 0
74 7 0
-73 -7 -74 0
75 6 0
75 13 0
-6 -13 -75 0
-8 75 -76 0
8 -75 -76 0
-8 -75 76 0
8 75 76 0
-77 -74 0
-77 -76 0
74 76 77 0
78 71 0
78 -77 0
-71 77 -78 0
-79 70 0
-79 78 0
-70 -78 79 0
80 69 0
80 -79 0
-69 79 -80 0
-81 57 0
-81 -80 0
-57 80 81 0
-82 48 0
-82 4 0
-48 -4 82 0
83 -25 0
83 9 0
25 -9 -83 0
-84 -8 0
-84 -83 0
8 83 84 0
85 60 0
85 -84 0
-60 84 -85 0
86 -65 0
86 85 0
65 -85 -86 0
-87 30 0
-87 -6 0
-30 6 87 0
-87 -10 -88 0
87 10 -88 0
-87 10 88 0
87 -10 88 0
-89 -72 0
-89 -27 0
72 27 89 0
-90 -89 0
-90 -8 0
89 8 90 0
64 25 -91 0
-64 -25 -91 0
64 -25 91 0
-64 25 91 0
-92 90 0
-92 -91 0
-90 91 92 0
-93 18 0
-93 -14 0
-18 14 93 0
50 93 -94 0
-50 -93 -94 0
50 -93 94 0
-50 93 94 0
-95 -94 0
-95 37 0
94 -37 95 0
-96 92 0
-96 -95 0
-92 95 96 0
97 88 0
97 96 0
-88 -96 -97 0
98 -86 0
98 -97 0
86 97 -98 0
30 -66 -99 0
-30 66 -99 0
30 66 99 0
-30 -66 99 0
-100 -3 0
-100 7 0
3 -7 100 0
-102 -10 0
-102 101 0
10 -101 102 0
103 -65 0
103 -25 0
65 25 -103 0
-102 103 -104 0
102 -103 -104 0
-102 -103 104 0
102 103 104 0
-105 100 0
-105 -104 0
-100 104 105 0
106 99 0
106 -105 0
-99 105 -106 0
-107 98 0
-107 106 0
-98 -106 107 0
108 -16 0
108 -1 0
16 1 -108 0
-31 108 -109 0
31 -108 -109 0
-31 -108 109 0
31 108 109 0
110 107 0
110 109 0
-107 -109 -110 0
-111 82 0
-111 110 0
-82 -110 111 0
112 -36 0
112 4 0
36 -4 -112 0
30 94 -113 0
-30 -94 -113 0
30 -94 113 0
-30 94 113 0
-113 31 -114 0
113 -31 -114 0
-113 -31 114 0
113 31 114 0
-115 27 0
-115 -66 0
-27 66 115 0
-114 -115 -116 0
114 115 -116 0
-114 115 116 0
114 -115 116 0
117 112 0
117 -116 0
-112 116 -117 0
-118 111 0
-118 117 0
-111 -117 118 0
81 118 -119 0
-81 -118 -119 0
81 -118 119 0
-81 118 119 0
-109 -9 -66 0
77 -11 15 104 -29 0
18 -20 119 -4 106 68 0
31 111 118 -28 74 -51 0
-46 6 -34 0
27 117 89 111 105 -12 0
119 58 -52 -85 0
-11 19 -62 0
-114 -94 34 -29 93 0
11 13 119 0
-45 102 0
21 99 35 39 51 -117 0
-42 104 0
90 -3 0
-83 89 -33 -71 0
102 111 57 80 81 87 0
73 50 64 68 0
-37 -84 0
-1 -48 40 0
73 -41 55 -99 0
-53 85 0
3 -75 37 -44 53 0
109 61 -25 0
15 73 108 7 114 67 0
37 116 44 94 0
32 -61 -35 -69 65 45 0
101 57 3 112 -28 39 0
37 -113 0
-109 -94 0
-80 -46 51 -3 0
75 3 -80 -18 0
-101 58 -24 -34 0
-44 76 30 110 0
-48 23 37 0
103 24 -92 -18 5 -105 0
-27 104 100 114 107 98 0
-72 97 -62 0
35 66 85 24 0
51 99 111 77 50 90 0
-80 -101 0
-107 40 -26 7 0
22 -100 96 105 71 0
59 78 63 74 0
53 -7 33 20 42 0
-90 -108 -5 0
12 116 10 -92 0
38 -55 89 31 -68 0
114 -45 -67 -115 0
101 14 92 -77 62 -98 0
5 -6 -114 0
61 -68 73 -7 -63 0
-42 59 33 0
-44 -67 -72 0
-106 43 -44 58 -101 0
-36 68 102 -11 -25 101 0
-94 -4 31 -77 0
-13 87 -8 -49 0
-116 41 -113 88 47 0
53 -103 -95 -81 0
43 29 0
87 -11 92 -85 0
-48 -98 0
-70 -1 0
10 -38 101 -4 0
-68 25 -18 -80 -113 0
-27 98 62 43 0
-12 114 52 54 109 0
3 -15 29 -54 0
-113 7 -28 104 -83 0
39 65 95 21 -55 0
119 0
